10
0 83 5 13 78 98 92 86 48 38 
83 0 2 74 75 48 84 7 51 8 
5 2 0 76 69 90 75 5 89 57 
13 74 76 0 58 13 98 2 69 14 
78 75 69 58 0 51 90 15 29 59 
98 48 90 13 51 0 65 31 16 65 
92 84 75 98 90 65 0 67 81 47 
86 7 5 2 15 31 67 0 67 88 
48 51 89 69 29 16 81 67 0 59 
38 8 57 14 59 65 47 88 59 0 
